81
129
473
83
58
459
121
289
297
363
237
428
291
388
264
13
435
283
50
192
155
291
56
190
255
338
220
375
470
142
99
383
122
372
397
343
450
137
2
137
124
78
180
186
454
62
292
201
92
107
427
472
432
254
319
225
60
324
221
189
160
330
265
359
23
184
30
303
423
481
464
11
259
439
35
335
235
357
192
58
17
307
24
323
374
78
436
126
82
495
233
226
67
226
434
122
413
235
382
31
